NAME : LPS-n15-m291
COMMENT : (Lartu-Peter-Santi Plot, instance 5091 out of 39200. 15 customers.)
TYPE : CVRP
DIMENSION : 15
EDGE_WEIGHT_TYPE : EUC_2D
CAPACITY : 84
NODE_COORD_SECTION
 1 0 16
 2 58 6
 3 38 97
 4 65 89
 5 67 15
 6 38 91
 7 49 66
 8 18 10
 9 91 86
 10 20 52
 11 64 92
 12 65 76
 13 57 35
 14 28 87
 15 67 69
DEMAND_SECTION
1 0
2 48
3 81
4 71
5 63
6 72
7 15
8 64
9 43
10 39
11 45
12 31
13 16
14 32
15 24
DEPOT_SECTION
 1
 -1
EOF
